projected/problems_b25_r0_d7_m100_s666/_DIMACS/b25_d7_r0_s666_003.cnf
p cnf 190 277 24
c p show 1 2 3 4 5 6 7 8 9 10 11 12 13 14 15 16 17 18 19 20 21 22 23 24
-133 10 0
-133 -10 0
-134 -21 0
-134 -16 0
-135 16 0
-135 21 0
-136 135 134 0
-137 136 0
-137 133 0
-138 21 16 0
-139 -16 -21 0
-140 139 0
-140 138 0
-141 -10 10 0
-142 141 0
-142 140 0
-143 142 137 0
-144 -18 0
-144 -17 0
-145 9 0
-145 22 0
-146 145 144 0
-147 146 143 0
-148 18 17 0
-149 -9 -22 0
-150 149 0
-150 148 0
-151 140 141 0
-152 133 136 0
-153 152 0
-153 151 0
-154 153 150 0
-155 154 0
-155 147 0
-156 5 0
-156 -19 0
-157 16 0
-157 11 0
-158 157 156 0
-159 -17 0
-159 -7 0
-160 -9 0
-160 1 0
-161 160 159 0
-162 161 158 0
-163 162 155 0
-164 4 18 0
-165 21 -1 0
-166 165 164 0
-167 6 0
-167 -22 0
-168 22 0
-168 -6 0
-169 168 167 0
-170 -7 -3 0
-171 170 0
-171 169 0
-172 171 166 0
-173 -2 0
-173 11 0
-174 5 -2 0
-175 174 173 0
-176 -16 0
-176 -3 0
-177 -15 0
-177 -5 0
-178 177 0
-178 176 0
-179 178 175 0
-180 179 0
-180 172 0
-181 180 0
-181 163 0
-182 -13 0
-182 22 0
-183 3 0
-183 10 0
-184 183 0
-184 182 0
-185 -14 23 0
-186 1 18 0
-187 186 0
-187 185 0
-188 187 184 0
-189 18 1 0
-190 -8 0
-25 190 0
-25 189 0
-68 4 -4 0
-26 -7 -21 0
-79 26 0
-79 68 0
-85 79 25 0
-91 85 0
-91 188 0
-27 -12 0
-27 21 0
-28 -19 13 0
-107 28 27 0
-29 24 0
-29 -7 0
-30 -9 0
-30 -10 0
-31 30 29 0
-32 31 107 0
-33 4 0
-33 17 0
-34 13 0
-34 -14 0
-35 34 33 0
-36 -5 -19 0
-37 10 -12 0
-38 37 36 0
-39 38 35 0
-40 5 0
-40 19 0
-41 -10 0
-41 12 0
-42 41 0
-42 40 0
-43 -4 -17 0
-44 -13 14 0
-45 44 0
-45 43 0
-46 45 42 0
-47 46 0
-47 39 0
-48 47 32 0
-49 48 0
-49 91 0
-50 49 0
-50 181 0
-51 -2 -16 0
-52 -7 0
-52 -6 0
-53 52 0
-53 51 0
-54 10 -14 0
-55 -11 0
-55 -14 0
-56 55 0
-56 54 0
-57 56 0
-57 53 0
-58 -18 0
-58 10 0
-59 -2 0
-59 -8 0
-60 59 0
-60 58 0
-61 8 -10 0
-62 -9 -15 0
-63 62 61 0
-64 63 60 0
-65 64 57 0
-66 11 0
-66 13 0
-67 17 0
-67 -9 0
-69 67 66 0
-70 -6 -11 0
-71 7 0
-71 -21 0
-72 71 0
-72 70 0
-73 72 0
-73 69 0
-74 -11 11 0
-75 -12 -24 0
-76 75 0
-76 74 0
-77 -15 9 0
-78 3 13 0
-80 -13 -3 0
-81 80 0
-81 78 0
-82 81 77 0
-83 82 0
-83 76 0
-84 15 0
-84 -9 0
-86 -3 0
-86 -13 0
-87 13 0
-87 3 0
-88 87 86 0
-89 88 0
-89 84 0
-90 11 0
-90 -11 0
-92 12 0
-92 24 0
-93 92 90 0
-94 93 0
-94 89 0
-95 94 83 0
-96 95 73 0
-97 96 65 0
-98 -14 22 0
-99 -9 0
-99 17 0
-100 99 98 0
-101 -18 21 0
-102 -9 0
-102 7 0
-103 102 0
-103 101 0
-104 103 0
-104 100 0
-105 -24 -17 0
-106 10 -11 0
-108 106 105 0
-109 21 -21 0
-110 -7 11 0
-111 110 0
-111 109 0
-112 111 0
-112 108 0
-113 112 104 0
-114 1 0
-114 6 0
-115 -6 -21 0
-116 21 6 0
-117 116 0
-117 115 0
-118 117 0
-118 114 0
-119 22 0
-119 19 0
-120 18 -20 0
-121 120 0
-121 119 0
-122 121 118 0
-123 -7 19 0
-124 -10 0
-124 11 0
-125 124 0
-125 123 0
-126 -10 0
-126 8 0
-127 11 -6 0
-128 127 126 0
-129 128 125 0
-130 129 122 0
-131 130 0
-131 113 0
-132 131 0
-132 97 0
132 0
50 0
-144 -148 0
-148 -144 0
-149 -145 0
-150 -146 0
-140 -136 0
-136 -140 0
-141 -133 0
-153 -143 0
-143 -153 0
-40 -36 0
-36 -40 0
-37 -41 0
-38 -42 0
-42 -38 0
-33 -43 0
-34 -44 0
-35 -45 0
-77 -84 0
-84 -77 0
-81 -88 0
-88 -81 0
-89 -82 0
-82 -89 0
-90 -74 0
-75 -92 0
-92 -75 0
-93 -76 0
