projected/problems_b25_r0_d7_m100_s666/b25_d7_r0_s666_003.smt2
(set-logic QF_UF)
(declare-fun A0 () Bool)
(declare-fun A1 () Bool)
(declare-fun A2 () Bool)
(declare-fun A3 () Bool)
(declare-fun A4 () Bool)
(declare-fun A5 () Bool)
(declare-fun A6 () Bool)
(declare-fun A7 () Bool)
(declare-fun A8 () Bool)
(declare-fun A9 () Bool)
(declare-fun A10 () Bool)
(declare-fun A11 () Bool)
(declare-fun A12 () Bool)
(declare-fun A13 () Bool)
(declare-fun A14 () Bool)
(declare-fun A15 () Bool)
(declare-fun A16 () Bool)
(declare-fun A17 () Bool)
(declare-fun A18 () Bool)
(declare-fun A19 () Bool)
(declare-fun A20 () Bool)
(declare-fun A22 () Bool)
(declare-fun A23 () Bool)
(declare-fun A24 () Bool)
(assert (let ((.def_0 (not A16))) (let ((.def_1 (not A17))) (let ((.def_2 (and .def_1 .def_0))) (let ((.def_3 (not .def_2))) (let ((.def_4 (not A22))) (let ((.def_5 (not A8))) (let ((.def_6 (or .def_5 .def_4))) (let ((.def_7 (and .def_6 .def_3))) (let ((.def_8 (not A20))) (let ((.def_9 (= A15 .def_8))) (let ((.def_10 (not .def_9))) (let ((.def_11 (not A9))) (let ((.def_12 (or .def_11 A9))) (let ((.def_13 (= .def_12 .def_10))) (let ((.def_14 (not .def_13))) (let ((.def_15 (= .def_14 .def_7))) (let ((.def_16 (not .def_15))) (let ((.def_17 (not A4))) (let ((.def_18 (or .def_17 A18))) (let ((.def_19 (not A10))) (let ((.def_20 (not A15))) (let ((.def_21 (or .def_20 .def_19))) (let ((.def_22 (and .def_21 .def_18))) (let ((.def_23 (not .def_22))) (let ((.def_24 (not A6))) (let ((.def_25 (and .def_0 .def_24))) (let ((.def_26 (not .def_25))) (let ((.def_27 (not A0))) (let ((.def_28 (or A8 .def_27))) (let ((.def_29 (and .def_28 .def_26))) (let ((.def_30 (not .def_29))) (let ((.def_31 (or .def_30 .def_23))) (let ((.def_32 (not .def_31))) (let ((.def_33 (and .def_32 .def_16))) (let ((.def_34 (not .def_33))) (let ((.def_35 (or A3 A17))) (let ((.def_36 (not .def_35))) (let ((.def_37 (or A20 .def_27))) (let ((.def_38 (not .def_37))) (let ((.def_39 (and .def_38 .def_36))) (let ((.def_40 (not .def_39))) (let ((.def_41 (= A22 A5))) (let ((.def_42 (not .def_41))) (let ((.def_43 (not A2))) (let ((.def_44 (or .def_24 .def_43))) (let ((.def_45 (and .def_44 .def_42))) (let ((.def_46 (or .def_45 .def_40))) (let ((.def_47 (or A1 .def_19))) (let ((.def_48 (not A1))) (let ((.def_49 (or A4 .def_48))) (let ((.def_50 (not .def_49))) (let ((.def_51 (and .def_50 .def_47))) (let ((.def_52 (not .def_51))) (let ((.def_53 (and .def_20 .def_43))) (let ((.def_54 (or A14 A4))) (let ((.def_55 (not .def_54))) (let ((.def_56 (and .def_55 .def_53))) (let ((.def_57 (or .def_56 .def_52))) (let ((.def_58 (and .def_57 .def_46))) (let ((.def_59 (and .def_58 .def_34))) (let ((.def_60 (not .def_59))) (let ((.def_61 (or A12 .def_4))) (let ((.def_62 (or .def_43 .def_11))) (let ((.def_63 (or .def_62 .def_61))) (let ((.def_64 (not A23))) (let ((.def_65 (and A13 .def_64))) (let ((.def_66 (not .def_65))) (let ((.def_67 (and .def_27 .def_1))) (let ((.def_68 (not .def_67))) (let ((.def_69 (and .def_68 .def_66))) (let ((.def_70 (not .def_69))) (let ((.def_71 (and .def_70 .def_63))) (let ((.def_72 (not .def_71))) (let ((.def_73 (and .def_1 .def_27))) (let ((.def_74 (not .def_73))) (let ((.def_75 (and A7 A7))) (let ((.def_76 (not .def_75))) (let ((.def_77 (and .def_76 .def_74))) (let ((.def_78 (not A3))) (let ((.def_79 (or A3 .def_78))) (let ((.def_80 (not .def_79))) (let ((.def_81 (or .def_24 .def_8))) (let ((.def_82 (not .def_81))) (let ((.def_83 (or .def_82 .def_80))) (let ((.def_84 (not .def_83))) (let ((.def_85 (or .def_84 .def_77))) (let ((.def_86 (and .def_85 .def_72))) (let ((.def_87 (not A11))) (let ((.def_88 (and .def_87 A20))) (let ((.def_89 (not A18))) (let ((.def_90 (or .def_89 A12))) (let ((.def_91 (or .def_90 .def_88))) (let ((.def_92 (and A24 .def_24))) (let ((.def_93 (not .def_92))) (let ((.def_94 (and .def_5 .def_11))) (let ((.def_95 (not .def_94))) (let ((.def_96 (and .def_95 .def_93))) (let ((.def_97 (not .def_96))) (let ((.def_98 (or .def_97 .def_91))) (let ((.def_99 (and A4 A18))) (let ((.def_100 (not .def_99))) (let ((.def_101 (or A9 .def_87))) (let ((.def_102 (or .def_101 .def_100))) (let ((.def_103 (not .def_102))) (let ((.def_104 (and A3 A16))) (let ((.def_105 (not A13))) (let ((.def_106 (and A12 .def_105))) (let ((.def_107 (or .def_106 .def_104))) (let ((.def_108 (= .def_107 .def_103))) (let ((.def_109 (or .def_108 .def_98))) (let ((.def_110 (and .def_109 .def_86))) (let ((.def_111 (not .def_110))) (let ((.def_112 (or .def_111 .def_60))) (let ((.def_113 (not .def_112))) (let ((.def_114 (and A1 A15))) (let ((.def_115 (not A5))) (let ((.def_116 (and .def_24 .def_115))) (let ((.def_117 (not .def_116))) (let ((.def_118 (or .def_117 .def_114))) (let ((.def_119 (or A9 .def_105))) (let ((.def_120 (or A10 A13))) (let ((.def_121 (not .def_120))) (let ((.def_122 (and .def_121 .def_119))) (let ((.def_123 (not .def_122))) (let ((.def_124 (or .def_123 .def_118))) (let ((.def_125 (not .def_124))) (let ((.def_126 (and .def_1 A9))) (let ((.def_127 (or A1 A7))) (let ((.def_128 (not .def_127))) (let ((.def_129 (and .def_128 .def_126))) (let ((.def_130 (not .def_129))) (let ((.def_131 (or A7 .def_11))) (let ((.def_132 (and A8 A14))) (let ((.def_133 (not .def_132))) (let ((.def_134 (or .def_133 .def_131))) (let ((.def_135 (not .def_134))) (let ((.def_136 (and .def_135 .def_130))) (let ((.def_137 (not .def_136))) (let ((.def_138 (or .def_137 .def_125))) (let ((.def_139 (not .def_138))) (let ((.def_140 (and A10 A12))) (let ((.def_141 (and A16 .def_5))) (let ((.def_142 (or .def_141 .def_140))) (let ((.def_143 (not .def_142))) (let ((.def_144 (and A5 A10))) (let ((.def_145 (not .def_144))) (let ((.def_146 (and A6 .def_8))) (let ((.def_147 (and .def_146 .def_145))) (let ((.def_148 (not .def_147))) (let ((.def_149 (or .def_148 .def_143))) (let ((.def_150 (not .def_149))) (let ((.def_151 (not A14))) (let ((.def_152 (or .def_151 A8))) (let ((.def_153 (not .def_152))) (let ((.def_154 (= A12 .def_43))) (let ((.def_155 (not .def_154))) (let ((.def_156 (and .def_155 .def_153))) (let ((.def_157 (not .def_156))) (let ((.def_158 (and A10 .def_19))) (let ((.def_159 (not A24))) (let ((.def_160 (or .def_87 .def_159))) (let ((.def_161 (not .def_160))) (let ((.def_162 (or .def_161 .def_158))) (let ((.def_163 (= .def_162 .def_157))) (let ((.def_164 (not .def_163))) (let ((.def_165 (or .def_164 .def_150))) (let ((.def_166 (not .def_165))) (let ((.def_167 (and .def_166 .def_139))) (let ((.def_168 (not .def_167))) (let ((.def_169 (or .def_105 A22))) (let ((.def_170 (not .def_169))) (let ((.def_171 (or A8 .def_0))) (let ((.def_172 (and .def_171 .def_170))) (let ((.def_173 (not .def_172))) (let ((.def_174 (or .def_1 A20))) (let ((.def_175 (and .def_5 A6))) (let ((.def_176 (and .def_175 .def_174))) (let ((.def_177 (and .def_176 .def_173))) (let ((.def_178 (not .def_177))) (let ((.def_179 (and A24 A16))) (let ((.def_180 (not .def_179))) (let ((.def_181 (or A9 .def_19))) (let ((.def_182 (or .def_181 .def_180))) (let ((.def_183 (not .def_182))) (let ((.def_184 (and .def_8 A20))) (let ((.def_185 (and A6 .def_19))) (let ((.def_186 (or .def_185 .def_184))) (let ((.def_187 (or .def_186 .def_183))) (let ((.def_188 (and .def_187 .def_178))) (let ((.def_189 (not .def_188))) (let ((.def_190 (and A0 A5))) (let ((.def_191 (not .def_190))) (let ((.def_192 (= .def_8 A5))) (let ((.def_193 (not .def_192))) (let ((.def_194 (or .def_193 .def_191))) (let ((.def_195 (not .def_194))) (let ((.def_196 (and A22 A18))) (let ((.def_197 (and .def_1 A19))) (let ((.def_198 (not .def_197))) (let ((.def_199 (and .def_198 .def_196))) (let ((.def_200 (or .def_199 .def_195))) (let ((.def_201 (not .def_200))) (let ((.def_202 (and A6 .def_89))) (let ((.def_203 (and .def_11 A10))) (let ((.def_204 (not .def_203))) (let ((.def_205 (or .def_204 .def_202))) (let ((.def_206 (and .def_11 A7))) (let ((.def_207 (and .def_19 A5))) (let ((.def_208 (not .def_207))) (let ((.def_209 (or .def_208 .def_206))) (let ((.def_210 (not .def_209))) (let ((.def_211 (and .def_210 .def_205))) (let ((.def_212 (and .def_211 .def_201))) (let ((.def_213 (not .def_212))) (let ((.def_214 (and .def_213 .def_189))) (let ((.def_215 (and .def_214 .def_168))) (let ((.def_216 (and .def_215 .def_113))) .def_216))))))))))))))))))))))))))))))))))))))))))))))))))))))))))))))))))))))))))))))))))))))))))))))))))))))))))))))))))))))))))))))))))))))))))))))))))))))))))))))))))))))))))))))))))))))))))))))))))))))))))))))))))))))))))
(check-sat)
